NAME : 0
COMMENT : CVRP Instance
TYPE : CVRP
DIMENSION : 936
EDGE_WEIGHT_TYPE : EUC_2D
CAPACITY : 138
NODE_COORD_SECTION
1	500.0	500.0
2	971.0	544.0
3	564.0	976.0
4	266.0	4.0
5	395.0	95.0
6	316.0	877.0
7	963.0	89.0
8	496.0	96.0
9	274.0	493.0
10	516.0	598.0
11	338.0	849.0
12	58.0	395.0
13	923.0	411.0
14	670.0	912.0
15	576.0	101.0
16	902.0	552.0
17	888.0	709.0
18	703.0	539.0
19	10.0	341.0
20	55.0	984.0
21	420.0	132.0
22	870.0	218.0
23	933.0	196.0
24	123.0	372.0
25	973.0	824.0
26	253.0	201.0
27	84.0	941.0
28	792.0	164.0
29	702.0	811.0
30	263.0	756.0
31	161.0	986.0
32	322.0	75.0
33	969.0	514.0
34	140.0	665.0
35	313.0	386.0
36	53.0	583.0
37	836.0	244.0
38	450.0	730.0
39	642.0	334.0
40	907.0	431.0
41	570.0	705.0
42	587.0	264.0
43	703.0	666.0
44	877.0	132.0
45	138.0	487.0
46	275.0	598.0
47	2.0	354.0
48	538.0	460.0
49	716.0	573.0
50	65.0	579.0
51	505.0	17.0
52	544.0	958.0
53	175.0	838.0
54	838.0	67.0
55	122.0	410.0
56	126.0	430.0
57	598.0	544.0
58	299.0	442.0
59	224.0	930.0
60	593.0	453.0
61	764.0	848.0
62	485.0	95.0
63	130.0	114.0
64	832.0	863.0
65	659.0	293.0
66	259.0	936.0
67	615.0	141.0
68	808.0	263.0
69	970.0	317.0
70	815.0	888.0
71	405.0	330.0
72	64.0	525.0
73	588.0	746.0
74	170.0	392.0
75	681.0	640.0
76	223.0	283.0
77	109.0	297.0
78	675.0	904.0
79	576.0	171.0
80	484.0	439.0
81	329.0	79.0
82	504.0	393.0
83	676.0	664.0
84	124.0	658.0
85	749.0	89.0
86	162.0	848.0
87	521.0	0.0
88	1.0	873.0
89	72.0	718.0
90	983.0	770.0
91	104.0	702.0
92	47.0	781.0
93	706.0	244.0
94	626.0	678.0
95	370.0	431.0
96	776.0	346.0
97	259.0	339.0
98	579.0	606.0
99	719.0	491.0
100	777.0	297.0
101	45.0	562.0
102	662.0	602.0
103	502.0	327.0
104	218.0	628.0
105	581.0	867.0
106	517.0	232.0
107	524.0	21.0
108	348.0	100.0
109	84.0	93.0
110	118.0	76.0
111	544.0	801.0
112	990.0	739.0
113	980.0	477.0
114	267.0	231.0
115	774.0	530.0
116	45.0	336.0
117	390.0	140.0
118	93.0	808.0
119	377.0	216.0
120	998.0	949.0
121	645.0	597.0
122	554.0	435.0
123	973.0	506.0
124	405.0	399.0
125	778.0	252.0
126	935.0	755.0
127	130.0	186.0
128	405.0	776.0
129	20.0	901.0
130	349.0	926.0
131	874.0	686.0
132	212.0	933.0
133	313.0	230.0
134	239.0	121.0
135	180.0	574.0
136	620.0	990.0
137	797.0	316.0
138	876.0	34.0
139	481.0	60.0
140	501.0	833.0
141	315.0	125.0
142	856.0	368.0
143	158.0	494.0
144	304.0	611.0
145	916.0	16.0
146	606.0	344.0
147	48.0	866.0
148	557.0	242.0
149	348.0	238.0
150	881.0	199.0
151	942.0	308.0
152	367.0	909.0
153	567.0	429.0
154	263.0	687.0
155	80.0	592.0
156	917.0	557.0
157	229.0	120.0
158	663.0	574.0
159	661.0	630.0
160	969.0	401.0
161	193.0	230.0
162	820.0	144.0
163	330.0	976.0
164	363.0	421.0
165	24.0	571.0
166	799.0	697.0
167	693.0	323.0
168	519.0	860.0
169	487.0	344.0
170	497.0	48.0
171	803.0	6.0
172	933.0	729.0
173	50.0	642.0
174	137.0	27.0
175	668.0	500.0
176	679.0	303.0
177	387.0	948.0
178	770.0	982.0
179	751.0	922.0
180	911.0	626.0
181	874.0	634.0
182	775.0	271.0
183	464.0	526.0
184	358.0	1.0
185	87.0	466.0
186	360.0	776.0
187	678.0	210.0
188	831.0	505.0
189	310.0	98.0
190	60.0	386.0
191	211.0	11.0
192	717.0	474.0
193	27.0	576.0
194	239.0	512.0
195	339.0	610.0
196	480.0	11.0
197	427.0	835.0
198	590.0	578.0
199	288.0	823.0
200	164.0	489.0
201	900.0	201.0
202	632.0	524.0
203	738.0	109.0
204	893.0	40.0
205	540.0	895.0
206	212.0	305.0
207	323.0	70.0
208	363.0	67.0
209	646.0	520.0
210	9.0	393.0
211	128.0	947.0
212	353.0	737.0
213	216.0	578.0
214	25.0	274.0
215	195.0	119.0
216	221.0	479.0
217	456.0	958.0
218	94.0	951.0
219	14.0	611.0
220	398.0	493.0
221	271.0	437.0
222	376.0	441.0
223	33.0	583.0
224	899.0	242.0
225	773.0	188.0
226	860.0	280.0
227	149.0	839.0
228	813.0	956.0
229	773.0	271.0
230	863.0	14.0
231	216.0	323.0
232	808.0	127.0
233	287.0	138.0
234	529.0	712.0
235	538.0	620.0
236	631.0	17.0
237	35.0	132.0
238	332.0	451.0
239	373.0	454.0
240	607.0	153.0
241	941.0	985.0
242	573.0	829.0
243	434.0	192.0
244	138.0	825.0
245	627.0	320.0
246	883.0	457.0
247	383.0	339.0
248	206.0	590.0
249	924.0	152.0
250	717.0	463.0
251	340.0	43.0
252	870.0	772.0
253	363.0	386.0
254	862.0	991.0
255	375.0	592.0
256	766.0	958.0
257	679.0	316.0
258	931.0	697.0
259	11.0	913.0
260	611.0	501.0
261	310.0	130.0
262	867.0	257.0
263	728.0	74.0
264	698.0	23.0
265	898.0	404.0
266	438.0	862.0
267	452.0	788.0
268	397.0	910.0
269	786.0	605.0
270	745.0	715.0
271	69.0	902.0
272	660.0	810.0
273	521.0	591.0
274	713.0	540.0
275	916.0	907.0
276	513.0	141.0
277	354.0	109.0
278	596.0	71.0
279	280.0	435.0
280	563.0	585.0
281	740.0	301.0
282	476.0	563.0
283	906.0	759.0
284	494.0	590.0
285	834.0	195.0
286	765.0	282.0
287	488.0	289.0
288	568.0	869.0
289	997.0	212.0
290	702.0	13.0
291	175.0	81.0
292	125.0	900.0
293	290.0	663.0
294	852.0	555.0
295	71.0	327.0
296	84.0	429.0
297	982.0	249.0
298	611.0	223.0
299	731.0	863.0
300	442.0	967.0
301	40.0	563.0
302	703.0	347.0
303	661.0	662.0
304	773.0	288.0
305	638.0	588.0
306	678.0	775.0
307	824.0	341.0
308	729.0	935.0
309	650.0	197.0
310	415.0	366.0
311	134.0	657.0
312	542.0	714.0
313	154.0	654.0
314	624.0	499.0
315	960.0	5.0
316	522.0	197.0
317	935.0	115.0
318	338.0	567.0
319	621.0	926.0
320	554.0	225.0
321	976.0	124.0
322	422.0	479.0
323	892.0	594.0
324	605.0	401.0
325	963.0	118.0
326	68.0	159.0
327	499.0	330.0
328	218.0	594.0
329	790.0	923.0
330	296.0	46.0
331	623.0	94.0
332	14.0	439.0
333	49.0	257.0
334	454.0	598.0
335	398.0	986.0
336	195.0	838.0
337	540.0	227.0
338	718.0	784.0
339	409.0	746.0
340	35.0	456.0
341	762.0	832.0
342	592.0	591.0
343	196.0	254.0
344	394.0	226.0
345	418.0	462.0
346	409.0	522.0
347	753.0	35.0
348	202.0	846.0
349	916.0	395.0
350	830.0	95.0
351	24.0	750.0
352	976.0	279.0
353	865.0	302.0
354	343.0	344.0
355	409.0	702.0
356	301.0	254.0
357	578.0	746.0
358	767.0	318.0
359	259.0	335.0
360	349.0	767.0
361	571.0	676.0
362	744.0	582.0
363	380.0	734.0
364	366.0	576.0
365	64.0	936.0
366	248.0	717.0
367	531.0	123.0
368	176.0	708.0
369	479.0	758.0
370	82.0	818.0
371	922.0	369.0
372	684.0	955.0
373	942.0	265.0
374	374.0	998.0
375	717.0	478.0
376	367.0	372.0
377	781.0	973.0
378	81.0	883.0
379	536.0	97.0
380	787.0	785.0
381	26.0	285.0
382	491.0	117.0
383	949.0	12.0
384	80.0	279.0
385	916.0	998.0
386	715.0	860.0
387	978.0	655.0
388	463.0	711.0
389	385.0	797.0
390	196.0	283.0
391	602.0	591.0
392	728.0	198.0
393	577.0	759.0
394	204.0	79.0
395	251.0	30.0
396	746.0	628.0
397	334.0	850.0
398	338.0	954.0
399	308.0	324.0
400	969.0	149.0
401	705.0	430.0
402	22.0	125.0
403	610.0	463.0
404	922.0	681.0
405	439.0	747.0
406	13.0	834.0
407	946.0	578.0
408	713.0	402.0
409	491.0	438.0
410	893.0	830.0
411	558.0	441.0
412	525.0	263.0
413	517.0	36.0
414	571.0	882.0
415	643.0	965.0
416	120.0	476.0
417	377.0	460.0
418	787.0	273.0
419	849.0	702.0
420	340.0	19.0
421	635.0	520.0
422	607.0	304.0
423	779.0	347.0
424	603.0	139.0
425	55.0	419.0
426	928.0	789.0
427	487.0	234.0
428	404.0	845.0
429	108.0	249.0
430	971.0	558.0
431	983.0	839.0
432	820.0	413.0
433	466.0	494.0
434	788.0	959.0
435	726.0	276.0
436	0.0	885.0
437	504.0	525.0
438	759.0	351.0
439	132.0	804.0
440	680.0	566.0
441	801.0	108.0
442	90.0	614.0
443	69.0	317.0
444	666.0	531.0
445	638.0	898.0
446	319.0	639.0
447	358.0	855.0
448	345.0	118.0
449	501.0	939.0
450	809.0	837.0
451	271.0	94.0
452	184.0	431.0
453	577.0	166.0
454	249.0	631.0
455	37.0	855.0
456	225.0	839.0
457	257.0	910.0
458	163.0	960.0
459	336.0	595.0
460	591.0	477.0
461	638.0	385.0
462	398.0	781.0
463	801.0	917.0
464	980.0	748.0
465	13.0	199.0
466	629.0	565.0
467	518.0	59.0
468	171.0	816.0
469	386.0	852.0
470	861.0	799.0
471	527.0	405.0
472	520.0	113.0
473	959.0	231.0
474	927.0	484.0
475	320.0	976.0
476	460.0	840.0
477	638.0	118.0
478	987.0	640.0
479	343.0	933.0
480	4.0	457.0
481	535.0	683.0
482	30.0	800.0
483	496.0	80.0
484	243.0	194.0
485	461.0	987.0
486	374.0	512.0
487	630.0	363.0
488	845.0	547.0
489	434.0	479.0
490	162.0	843.0
491	50.0	364.0
492	555.0	775.0
493	171.0	505.0
494	869.0	873.0
495	15.0	809.0
496	700.0	403.0
497	597.0	797.0
498	795.0	196.0
499	237.0	62.0
500	682.0	724.0
501	335.0	977.0
502	569.0	427.0
503	379.0	633.0
504	481.0	295.0
505	215.0	59.0
506	651.0	692.0
507	560.0	666.0
508	157.0	438.0
509	769.0	951.0
510	824.0	134.0
511	850.0	450.0
512	348.0	742.0
513	730.0	945.0
514	703.0	412.0
515	773.0	913.0
516	769.0	561.0
517	538.0	228.0
518	229.0	200.0
519	806.0	122.0
520	711.0	514.0
521	834.0	378.0
522	173.0	688.0
523	879.0	789.0
524	548.0	987.0
525	961.0	861.0
526	634.0	81.0
527	876.0	764.0
528	230.0	630.0
529	466.0	535.0
530	536.0	102.0
531	133.0	535.0
532	784.0	861.0
533	602.0	148.0
534	134.0	487.0
535	940.0	737.0
536	815.0	360.0
537	821.0	842.0
538	512.0	487.0
539	38.0	639.0
540	8.0	577.0
541	278.0	643.0
542	79.0	371.0
543	126.0	655.0
544	627.0	223.0
545	336.0	973.0
546	74.0	924.0
547	350.0	839.0
548	9.0	780.0
549	57.0	143.0
550	66.0	944.0
551	814.0	382.0
552	74.0	990.0
553	707.0	856.0
554	447.0	745.0
555	71.0	122.0
556	820.0	364.0
557	254.0	702.0
558	943.0	660.0
559	632.0	31.0
560	820.0	679.0
561	873.0	665.0
562	101.0	533.0
563	456.0	728.0
564	726.0	474.0
565	436.0	619.0
566	806.0	226.0
567	458.0	967.0
568	771.0	559.0
569	24.0	828.0
570	761.0	118.0
571	7.0	144.0
572	263.0	505.0
573	419.0	445.0
574	3.0	602.0
575	423.0	799.0
576	89.0	151.0
577	604.0	17.0
578	397.0	585.0
579	480.0	109.0
580	215.0	101.0
581	269.0	982.0
582	134.0	993.0
583	905.0	394.0
584	185.0	224.0
585	304.0	162.0
586	234.0	264.0
587	878.0	612.0
588	620.0	156.0
589	303.0	278.0
590	44.0	855.0
591	533.0	864.0
592	718.0	798.0
593	64.0	437.0
594	743.0	738.0
595	455.0	890.0
596	760.0	816.0
597	87.0	637.0
598	834.0	898.0
599	185.0	572.0
600	599.0	142.0
601	76.0	267.0
602	648.0	838.0
603	715.0	431.0
604	170.0	474.0
605	439.0	608.0
606	847.0	75.0
607	991.0	131.0
608	987.0	776.0
609	783.0	329.0
610	921.0	646.0
611	411.0	976.0
612	638.0	775.0
613	423.0	993.0
614	684.0	597.0
615	329.0	406.0
616	293.0	468.0
617	875.0	548.0
618	784.0	495.0
619	549.0	509.0
620	197.0	614.0
621	357.0	841.0
622	191.0	919.0
623	829.0	509.0
624	176.0	239.0
625	292.0	100.0
626	710.0	967.0
627	381.0	271.0
628	133.0	135.0
629	807.0	453.0
630	467.0	749.0
631	369.0	804.0
632	549.0	358.0
633	228.0	411.0
634	422.0	893.0
635	412.0	751.0
636	982.0	733.0
637	589.0	381.0
638	860.0	42.0
639	78.0	903.0
640	569.0	345.0
641	122.0	157.0
642	894.0	355.0
643	395.0	686.0
644	527.0	51.0
645	769.0	426.0
646	966.0	7.0
647	336.0	670.0
648	648.0	970.0
649	669.0	263.0
650	345.0	688.0
651	334.0	63.0
652	804.0	987.0
653	665.0	637.0
654	632.0	101.0
655	772.0	217.0
656	445.0	251.0
657	807.0	906.0
658	251.0	470.0
659	484.0	123.0
660	98.0	682.0
661	843.0	317.0
662	959.0	30.0
663	262.0	911.0
664	871.0	459.0
665	728.0	510.0
666	334.0	535.0
667	348.0	353.0
668	946.0	531.0
669	118.0	14.0
670	291.0	752.0
671	938.0	361.0
672	85.0	112.0
673	874.0	752.0
674	566.0	966.0
675	680.0	491.0
676	130.0	180.0
677	558.0	532.0
678	228.0	473.0
679	177.0	434.0
680	499.0	981.0
681	937.0	557.0
682	170.0	92.0
683	484.0	525.0
684	689.0	524.0
685	479.0	920.0
686	617.0	651.0
687	609.0	240.0
688	773.0	84.0
689	857.0	102.0
690	619.0	498.0
691	13.0	695.0
692	905.0	706.0
693	446.0	478.0
694	555.0	993.0
695	112.0	144.0
696	815.0	693.0
697	826.0	813.0
698	634.0	14.0
699	774.0	487.0
700	313.0	120.0
701	277.0	759.0
702	391.0	455.0
703	817.0	760.0
704	787.0	325.0
705	286.0	363.0
706	189.0	724.0
707	517.0	641.0
708	701.0	412.0
709	39.0	562.0
710	722.0	245.0
711	100.0	949.0
712	98.0	751.0
713	928.0	681.0
714	508.0	959.0
715	247.0	144.0
716	101.0	476.0
717	46.0	938.0
718	395.0	820.0
719	592.0	826.0
720	410.0	990.0
721	693.0	941.0
722	60.0	300.0
723	220.0	235.0
724	801.0	457.0
725	868.0	188.0
726	509.0	886.0
727	171.0	754.0
728	631.0	311.0
729	773.0	569.0
730	572.0	581.0
731	938.0	403.0
732	334.0	749.0
733	317.0	863.0
734	410.0	401.0
735	967.0	345.0
736	923.0	234.0
737	609.0	241.0
738	13.0	883.0
739	155.0	385.0
740	486.0	997.0
741	463.0	764.0
742	698.0	572.0
743	356.0	465.0
744	694.0	529.0
745	893.0	883.0
746	608.0	537.0
747	876.0	170.0
748	293.0	93.0
749	620.0	941.0
750	217.0	857.0
751	971.0	225.0
752	607.0	215.0
753	566.0	671.0
754	829.0	126.0
755	353.0	996.0
756	38.0	186.0
757	356.0	695.0
758	68.0	960.0
759	688.0	990.0
760	569.0	563.0
761	819.0	29.0
762	397.0	484.0
763	91.0	351.0
764	258.0	668.0
765	486.0	578.0
766	599.0	841.0
767	637.0	370.0
768	743.0	89.0
769	93.0	635.0
770	287.0	690.0
771	846.0	975.0
772	738.0	183.0
773	78.0	389.0
774	404.0	706.0
775	195.0	232.0
776	537.0	567.0
777	81.0	414.0
778	721.0	77.0
779	618.0	854.0
780	512.0	627.0
781	448.0	179.0
782	334.0	10.0
783	995.0	688.0
784	613.0	12.0
785	725.0	542.0
786	171.0	228.0
787	663.0	226.0
788	867.0	142.0
789	161.0	250.0
790	485.0	465.0
791	913.0	100.0
792	880.0	698.0
793	213.0	444.0
794	360.0	974.0
795	485.0	582.0
796	336.0	126.0
797	35.0	152.0
798	205.0	23.0
799	77.0	83.0
800	498.0	141.0
801	990.0	797.0
802	261.0	397.0
803	838.0	659.0
804	706.0	222.0
805	136.0	687.0
806	92.0	894.0
807	869.0	500.0
808	878.0	112.0
809	744.0	525.0
810	96.0	830.0
811	725.0	444.0
812	10.0	324.0
813	781.0	904.0
814	995.0	534.0
815	915.0	464.0
816	679.0	632.0
817	419.0	805.0
818	338.0	854.0
819	400.0	176.0
820	536.0	577.0
821	535.0	103.0
822	8.0	650.0
823	94.0	338.0
824	812.0	968.0
825	206.0	62.0
826	711.0	300.0
827	367.0	345.0
828	817.0	375.0
829	215.0	838.0
830	482.0	199.0
831	538.0	736.0
832	437.0	640.0
833	546.0	974.0
834	185.0	253.0
835	381.0	687.0
836	639.0	364.0
837	888.0	908.0
838	12.0	388.0
839	624.0	519.0
840	965.0	418.0
841	130.0	464.0
842	985.0	43.0
843	445.0	191.0
844	36.0	437.0
845	869.0	362.0
846	449.0	675.0
847	980.0	804.0
848	54.0	321.0
849	901.0	710.0
850	582.0	253.0
851	813.0	96.0
852	295.0	739.0
853	726.0	504.0
854	888.0	766.0
855	485.0	952.0
856	617.0	620.0
857	47.0	135.0
858	699.0	715.0
859	990.0	890.0
860	951.0	664.0
861	274.0	884.0
862	677.0	618.0
863	270.0	576.0
864	812.0	834.0
865	13.0	418.0
866	309.0	509.0
867	727.0	310.0
868	788.0	858.0
869	580.0	301.0
870	414.0	438.0
871	712.0	540.0
872	48.0	732.0
873	490.0	483.0
874	636.0	970.0
875	30.0	346.0
876	841.0	214.0
877	962.0	807.0
878	947.0	684.0
879	440.0	957.0
880	990.0	333.0
881	417.0	506.0
882	149.0	678.0
883	153.0	236.0
884	396.0	878.0
885	984.0	703.0
886	373.0	62.0
887	334.0	190.0
888	543.0	908.0
889	988.0	913.0
890	575.0	465.0
891	600.0	467.0
892	989.0	243.0
893	463.0	540.0
894	40.0	530.0
895	522.0	854.0
896	870.0	975.0
897	643.0	379.0
898	884.0	415.0
899	124.0	779.0
900	402.0	955.0
901	466.0	117.0
902	547.0	294.0
903	383.0	811.0
904	380.0	304.0
905	73.0	831.0
906	299.0	858.0
907	730.0	158.0
908	674.0	908.0
909	309.0	487.0
910	739.0	812.0
911	546.0	173.0
912	734.0	916.0
913	220.0	444.0
914	293.0	376.0
915	670.0	846.0
916	87.0	244.0
917	559.0	950.0
918	716.0	790.0
919	891.0	306.0
920	842.0	77.0
921	277.0	644.0
922	589.0	803.0
923	450.0	327.0
924	179.0	362.0
925	31.0	55.0
926	824.0	185.0
927	545.0	822.0
928	863.0	311.0
929	683.0	106.0
930	158.0	219.0
931	823.0	342.0
932	733.0	905.0
933	794.0	607.0
934	661.0	205.0
935	888.0	583.0
936	208.0	385.0
DEMAND_SECTION
1	0
2	88
3	98
4	94
5	89
6	83
7	65
8	85
9	66
10	89
11	80
12	58
13	54
14	75
15	60
16	77
17	69
18	79
19	99
20	86
21	63
22	84
23	92
24	87
25	54
26	93
27	58
28	62
29	98
30	50
31	71
32	55
33	61
34	76
35	76
36	88
37	51
38	78
39	71
40	90
41	90
42	87
43	80
44	74
45	83
46	79
47	77
48	58
49	53
50	99
51	62
52	95
53	61
54	84
55	86
56	91
57	79
58	93
59	76
60	88
61	68
62	80
63	59
64	82
65	53
66	67
67	90
68	51
69	99
70	72
71	70
72	85
73	80
74	80
75	81
76	100
77	60
78	74
79	52
80	70
81	70
82	53
83	92
84	55
85	73
86	63
87	55
88	68
89	100
90	69
91	77
92	55
93	68
94	81
95	89
96	70
97	59
98	76
99	51
100	99
101	92
102	78
103	75
104	84
105	98
106	81
107	96
108	99
109	100
110	71
111	50
112	76
113	80
114	55
115	51
116	79
117	62
118	86
119	62
120	79
121	81
122	84
123	72
124	77
125	61
126	64
127	70
128	84
129	90
130	63
131	74
132	92
133	93
134	58
135	99
136	98
137	57
138	50
139	87
140	85
141	62
142	83
143	82
144	89
145	97
146	68
147	52
148	81
149	91
150	64
151	68
152	87
153	85
154	100
155	74
156	66
157	59
158	95
159	67
160	86
161	58
162	92
163	69
164	92
165	64
166	75
167	52
168	91
169	70
170	52
171	66
172	68
173	61
174	72
175	60
176	70
177	83
178	53
179	57
180	70
181	71
182	61
183	86
184	54
185	73
186	79
187	97
188	86
189	75
190	84
191	92
192	87
193	78
194	74
195	50
196	62
197	69
198	92
199	50
200	73
201	100
202	99
203	98
204	63
205	59
206	50
207	97
208	82
209	50
210	74
211	80
212	62
213	66
214	88
215	79
216	94
217	58
218	83
219	51
220	97
221	71
222	94
223	57
224	50
225	60
226	73
227	6
228	4
229	4
230	4
231	1
232	2
233	2
234	1
235	9
236	7
237	4
238	7
239	2
240	8
241	3
242	9
243	7
244	4
245	8
246	2
247	2
248	4
249	1
250	6
251	1
252	3
253	2
254	8
255	5
256	8
257	4
258	1
259	4
260	3
261	6
262	5
263	6
264	3
265	2
266	6
267	3
268	8
269	1
270	6
271	10
272	1
273	7
274	5
275	6
276	1
277	10
278	7
279	8
280	8
281	5
282	5
283	2
284	10
285	1
286	6
287	2
288	4
289	3
290	5
291	7
292	5
293	2
294	3
295	6
296	9
297	2
298	7
299	5
300	8
301	5
302	1
303	8
304	7
305	4
306	5
307	5
308	5
309	3
310	6
311	7
312	4
313	5
314	6
315	8
316	2
317	3
318	6
319	4
320	9
321	2
322	9
323	7
324	10
325	5
326	10
327	6
328	3
329	6
330	7
331	7
332	1
333	8
334	4
335	8
336	9
337	8
338	2
339	8
340	10
341	9
342	1
343	10
344	4
345	5
346	3
347	10
348	3
349	2
350	9
351	5
352	7
353	4
354	7
355	6
356	2
357	6
358	1
359	6
360	8
361	5
362	8
363	2
364	8
365	4
366	7
367	2
368	1
369	1
370	9
371	7
372	7
373	10
374	4
375	1
376	2
377	7
378	7
379	1
380	5
381	8
382	10
383	5
384	10
385	1
386	1
387	7
388	3
389	10
390	5
391	10
392	6
393	3
394	3
395	2
396	3
397	5
398	3
399	2
400	3
401	5
402	8
403	4
404	10
405	9
406	9
407	1
408	8
409	4
410	1
411	3
412	1
413	6
414	10
415	9
416	10
417	5
418	3
419	3
420	6
421	7
422	8
423	1
424	9
425	1
426	5
427	10
428	7
429	3
430	5
431	2
432	9
433	3
434	1
435	2
436	10
437	8
438	7
439	4
440	7
441	7
442	8
443	10
444	2
445	8
446	2
447	9
448	10
449	10
450	6
451	7
452	3
453	2
454	10
455	10
456	1
457	3
458	6
459	8
460	4
461	1
462	4
463	4
464	2
465	7
466	2
467	3
468	1
469	10
470	1
471	2
472	10
473	10
474	1
475	3
476	2
477	5
478	7
479	6
480	3
481	7
482	2
483	9
484	6
485	5
486	4
487	10
488	3
489	10
490	8
491	9
492	5
493	1
494	5
495	10
496	3
497	1
498	1
499	1
500	5
501	8
502	4
503	8
504	10
505	4
506	1
507	5
508	3
509	1
510	10
511	4
512	1
513	9
514	4
515	4
516	8
517	10
518	4
519	4
520	9
521	5
522	4
523	5
524	4
525	6
526	8
527	3
528	6
529	5
530	3
531	6
532	4
533	3
534	8
535	3
536	9
537	4
538	1
539	8
540	7
541	8
542	2
543	5
544	7
545	9
546	4
547	4
548	2
549	9
550	10
551	4
552	10
553	1
554	6
555	9
556	2
557	8
558	6
559	6
560	2
561	3
562	10
563	3
564	1
565	9
566	5
567	1
568	10
569	10
570	3
571	6
572	7
573	8
574	5
575	2
576	2
577	9
578	5
579	10
580	10
581	5
582	7
583	2
584	9
585	1
586	7
587	3
588	2
589	10
590	3
591	10
592	5
593	8
594	4
595	3
596	8
597	8
598	9
599	4
600	6
601	6
602	1
603	9
604	6
605	5
606	3
607	6
608	10
609	1
610	9
611	7
612	5
613	10
614	6
615	2
616	9
617	6
618	10
619	10
620	7
621	4
622	10
623	8
624	6
625	1
626	7
627	9
628	8
629	2
630	1
631	4
632	8
633	3
634	7
635	2
636	5
637	10
638	7
639	2
640	3
641	9
642	10
643	5
644	8
645	6
646	9
647	6
648	2
649	9
650	6
651	2
652	9
653	3
654	10
655	3
656	9
657	6
658	2
659	3
660	4
661	4
662	4
663	4
664	10
665	5
666	3
667	7
668	8
669	6
670	1
671	10
672	3
673	4
674	8
675	8
676	4
677	7
678	10
679	6
680	10
681	3
682	10
683	2
684	1
685	9
686	5
687	8
688	5
689	5
690	2
691	8
692	7
693	7
694	1
695	7
696	3
697	4
698	1
699	5
700	7
701	5
702	7
703	4
704	4
705	9
706	7
707	8
708	3
709	4
710	1
711	4
712	7
713	10
714	1
715	2
716	6
717	5
718	9
719	4
720	8
721	10
722	8
723	6
724	10
725	2
726	4
727	4
728	1
729	3
730	5
731	10
732	5
733	1
734	6
735	6
736	7
737	7
738	10
739	8
740	9
741	1
742	5
743	4
744	5
745	3
746	5
747	5
748	4
749	4
750	3
751	5
752	9
753	4
754	5
755	10
756	7
757	3
758	6
759	9
760	6
761	3
762	6
763	4
764	3
765	5
766	3
767	8
768	5
769	10
770	8
771	10
772	4
773	9
774	3
775	7
776	5
777	4
778	2
779	3
780	10
781	7
782	10
783	2
784	2
785	9
786	3
787	3
788	8
789	2
790	9
791	4
792	1
793	8
794	7
795	9
796	5
797	10
798	8
799	4
800	10
801	1
802	4
803	6
804	10
805	1
806	8
807	6
808	1
809	6
810	6
811	9
812	6
813	7
814	2
815	9
816	8
817	8
818	6
819	6
820	8
821	1
822	5
823	1
824	7
825	10
826	1
827	9
828	3
829	9
830	5
831	5
832	5
833	1
834	2
835	10
836	1
837	10
838	4
839	5
840	6
841	1
842	8
843	5
844	4
845	7
846	2
847	8
848	1
849	3
850	6
851	3
852	8
853	3
854	8
855	3
856	7
857	2
858	1
859	5
860	9
861	3
862	7
863	4
864	3
865	5
866	2
867	3
868	8
869	9
870	1
871	4
872	1
873	2
874	2
875	4
876	7
877	9
878	3
879	1
880	2
881	7
882	5
883	6
884	10
885	10
886	9
887	3
888	5
889	5
890	8
891	10
892	6
893	7
894	5
895	4
896	6
897	3
898	9
899	8
900	4
901	8
902	4
903	7
904	9
905	1
906	10
907	8
908	6
909	7
910	7
911	10
912	5
913	3
914	7
915	7
916	8
917	5
918	1
919	3
920	2
921	3
922	5
923	6
924	7
925	1
926	3
927	6
928	7
929	9
930	3
931	8
932	2
933	2
934	4
935	6
936	2
DEPOT_SECTION
1
-1
EOF
